Version identifier: 20.1.0.0 | 2020-11-10 | 9bedb6d68
Tried aggregator 2 times.
MIP Presolve eliminated 2475 rows and 1220 columns.
MIP Presolve modified 6326 coefficients.
Aggregator did 253 substitutions.
Reduced MIP has 3681 rows, 2942 columns, and 12067 nonzeros.
Reduced MIP has 571 binaries, 2371 generals, 0 SOSs, and 0 indicators.
Presolve time = 0.03 sec. (15.08 ticks)
Probing fixed 76 vars, tightened 675 bounds.
Probing time = 0.01 sec. (1.42 ticks)
Tried aggregator 3 times.
Detecting symmetries...
MIP Presolve eliminated 1462 rows and 104 columns.
MIP Presolve modified 281 coefficients.
Aggregator did 25 substitutions.
Reduced MIP has 2194 rows, 2813 columns, and 7150 nonzeros.
Reduced MIP has 799 binaries, 2014 generals, 0 SOSs, and 0 indicators.
Presolve time = 0.03 sec. (11.85 ticks)
Probing fixed 0 vars, tightened 2 bounds.
Probing time = 0.00 sec. (0.62 ticks)
Clique table members: 39.
MIP emphasis: balance optimality and feasibility.
MIP search method: dynamic search.
Parallel mode: deterministic, using up to 24 threads.
Root relaxation solution time = 0.03 sec. (11.11 ticks)

        Nodes                                         Cuts/
   Node  Left     Objective  IInf  Best Integer    Best Bound    ItCnt     Gap

      0     0        0.0000   112                      0.0000      731         
*     0+    0                           23.0000        0.0000           100.00%
      0     0        0.0000   100       23.0000     Cuts: 219      923   95.65%
      0     0        0.0000   180       23.0000     Cuts: 206     1141   95.65%
      0     0        0.0000    94       23.0000      Cuts: 85     1442   95.65%
      0     0        0.0000    84       23.0000      Cuts: 75     1671   95.65%
      0     0        0.0075   510       23.0000      Cuts: 37     2101   52.17%
*     0+    0                           22.0000       11.0000            50.00%
      0     2        0.0075   348       22.0000       19.0000     2101   13.64%
Elapsed time = 1.57 sec. (382.10 ticks, tree = 0.02 MB, solutions = 2)
*    86    35      integral     0       21.0000       19.0000    23556    9.52%
    163    15       20.0000    13       21.0000       19.0000    53448    9.52%
*   165    10      integral     0       20.0000       19.0000    55469    5.00%

Implied bound cuts applied:  236
Flow cuts applied:  3
Mixed integer rounding cuts applied:  27
Zero-half cuts applied:  94
Lift and project cuts applied:  19
Gomory fractional cuts applied:  25

Root node processing (before b&c):
  Real time             =    1.49 sec. (381.14 ticks)
Parallel b&c, 24 threads:
  Real time             =    1.26 sec. (326.04 ticks)
  Sync time (average)   =    0.89 sec.
  Wait time (average)   =    0.00 sec.
                          ------------
Total (root+branch&cut) =    2.75 sec. (707.18 ticks)

Solution status = Optimal
Solution LB = 20
Solution UB = 20
Runtime = 2.75696 seconds
	Command being timed: "/home/min/git_repos/CS598MEBProject/CNT-ILP/build/cnt -s 2 ./output/k8_n40/simC_c1_k8_n40_u2_s2_del04.input-right.cnp"
	User time (seconds): 41.40
	System time (seconds): 0.33
	Percent of CPU this job got: 1478%
	Elapsed (wall clock) time (h:mm:ss or m:ss): 0:02.82
	Average shared text size (kbytes): 0
	Average unshared data size (kbytes): 0
	Average stack size (kbytes): 0
	Average total size (kbytes): 0
	Maximum resident set size (kbytes): 195416
	Average resident set size (kbytes): 0
	Major (requiring I/O) page faults: 0
	Minor (reclaiming a frame) page faults: 77398
	Voluntary context switches: 11108
	Involuntary context switches: 6087
	Swaps: 0
	File system inputs: 0
	File system outputs: 24
	Socket messages sent: 0
	Socket messages received: 0
	Signals delivered: 0
	Page size (bytes): 4096
	Exit status: 0
